c Reduced graph for GEOM100b generated by Cyril Grelier
p edge 94 1004
e 1 2
e 1 3
e 1 4
e 1 6
e 1 7
e 1 8
e 1 9
e 1 10
e 1 11
e 1 14
e 1 18
e 1 33
e 1 34
e 1 36
e 1 37
e 1 38
e 1 40
e 1 41
e 1 42
e 1 44
e 1 46
e 1 49
e 1 67
e 1 68
e 1 69
e 1 70
e 1 71
e 1 72
e 1 73
e 1 74
e 1 75
e 1 76
e 1 77
e 1 78
e 1 79
e 1 80
e 1 86
e 2 3
e 2 4
e 2 7
e 2 8
e 2 9
e 2 10
e 2 14
e 2 18
e 2 33
e 2 37
e 2 40
e 2 41
e 2 42
e 2 44
e 2 46
e 2 49
e 2 50
e 2 56
e 2 67
e 2 68
e 2 71
e 2 72
e 2 75
e 2 76
e 2 77
e 2 78
e 2 79
e 2 80
e 2 86
e 2 87
e 2 94
e 3 4
e 3 6
e 3 7
e 3 8
e 3 9
e 3 10
e 3 11
e 3 12
e 3 14
e 3 33
e 3 37
e 3 38
e 3 40
e 3 41
e 3 42
e 3 46
e 3 67
e 3 68
e 3 70
e 3 71
e 3 72
e 3 73
e 3 74
e 3 75
e 3 76
e 3 77
e 3 78
e 3 79
e 3 80
e 3 86
e 4 6
e 4 7
e 4 9
e 4 10
e 4 11
e 4 13
e 4 14
e 4 16
e 4 18
e 4 33
e 4 34
e 4 35
e 4 36
e 4 37
e 4 38
e 4 40
e 4 41
e 4 47
e 4 67
e 4 68
e 4 69
e 4 70
e 4 71
e 4 72
e 4 74
e 4 75
e 4 77
e 4 78
e 4 83
e 5 7
e 5 10
e 5 12
e 5 14
e 5 15
e 5 17
e 5 19
e 5 20
e 5 22
e 5 25
e 5 26
e 5 27
e 5 37
e 5 39
e 5 43
e 5 45
e 5 48
e 5 51
e 5 52
e 5 55
e 5 68
e 5 70
e 5 72
e 5 73
e 5 75
e 5 81
e 5 82
e 5 85
e 5 89
e 5 90
e 5 92
e 6 7
e 6 11
e 6 13
e 6 14
e 6 16
e 6 21
e 6 23
e 6 24
e 6 34
e 6 35
e 6 36
e 6 37
e 6 38
e 6 40
e 6 47
e 6 53
e 6 58
e 6 67
e 6 68
e 6 69
e 6 70
e 6 71
e 6 72
e 6 74
e 6 83
e 6 84
e 6 88
e 6 93
e 7 8
e 7 10
e 7 11
e 7 12
e 7 14
e 7 16
e 7 33
e 7 34
e 7 35
e 7 36
e 7 37
e 7 38
e 7 67
e 7 68
e 7 69
e 7 70
e 7 71
e 7 72
e 7 73
e 7 74
e 7 75
e 7 79
e 7 80
e 8 9
e 8 25
e 8 33
e 8 41
e 8 42
e 8 46
e 8 50
e 8 56
e 8 57
e 8 59
e 8 60
e 8 63
e 8 68
e 8 73
e 8 75
e 8 76
e 8 77
e 8 78
e 8 79
e 8 80
e 8 86
e 8 87
e 8 91
e 8 94
e 9 18
e 9 33
e 9 41
e 9 42
e 9 44
e 9 46
e 9 49
e 9 50
e 9 56
e 9 57
e 9 59
e 9 60
e 9 63
e 9 76
e 9 77
e 9 78
e 9 79
e 9 80
e 9 86
e 9 87
e 9 91
e 9 94
e 10 11
e 10 12
e 10 14
e 10 15
e 10 17
e 10 19
e 10 20
e 10 25
e 10 37
e 10 38
e 10 39
e 10 43
e 10 45
e 10 68
e 10 70
e 10 72
e 10 73
e 10 74
e 10 75
e 10 79
e 10 80
e 11 13
e 11 14
e 11 16
e 11 17
e 11 21
e 11 23
e 11 34
e 11 35
e 11 36
e 11 37
e 11 38
e 11 54
e 11 67
e 11 68
e 11 69
e 11 70
e 11 72
e 11 74
e 11 75
e 11 81
e 12 14
e 12 15
e 12 19
e 12 20
e 12 25
e 12 28
e 12 37
e 12 39
e 12 43
e 12 45
e 12 55
e 12 68
e 12 70
e 12 72
e 12 73
e 12 75
e 12 79
e 12 80
e 12 85
e 12 86
e 12 89
e 12 92
e 13 16
e 13 23
e 13 24
e 13 31
e 13 34
e 13 35
e 13 36
e 13 37
e 13 38
e 13 40
e 13 47
e 13 53
e 13 58
e 13 61
e 13 67
e 13 69
e 13 71
e 13 72
e 13 74
e 13 83
e 13 84
e 13 88
e 13 93
e 14 15
e 14 16
e 14 17
e 14 21
e 14 37
e 14 38
e 14 39
e 14 45
e 14 68
e 14 69
e 14 70
e 14 72
e 14 73
e 14 74
e 14 75
e 14 81
e 15 17
e 15 19
e 15 20
e 15 22
e 15 25
e 15 26
e 15 27
e 15 28
e 15 39
e 15 43
e 15 45
e 15 48
e 15 51
e 15 52
e 15 55
e 15 70
e 15 73
e 15 75
e 15 82
e 15 85
e 15 89
e 15 92
e 16 17
e 16 21
e 16 23
e 16 24
e 16 29
e 16 34
e 16 35
e 16 36
e 16 37
e 16 38
e 16 54
e 16 58
e 16 67
e 16 68
e 16 69
e 16 70
e 16 72
e 16 74
e 16 81
e 17 20
e 17 21
e 17 22
e 17 29
e 17 30
e 17 38
e 17 39
e 17 43
e 17 48
e 17 51
e 17 52
e 17 54
e 17 62
e 17 70
e 17 81
e 17 82
e 17 90
e 18 33
e 18 34
e 18 36
e 18 40
e 18 41
e 18 42
e 18 44
e 18 47
e 18 49
e 18 53
e 18 57
e 18 67
e 18 71
e 18 76
e 18 77
e 18 78
e 18 83
e 18 87
e 19 20
e 19 25
e 19 27
e 19 28
e 19 39
e 19 43
e 19 45
e 19 55
e 19 59
e 19 73
e 19 75
e 19 79
e 19 80
e 19 85
e 19 86
e 19 89
e 19 92
e 20 22
e 20 26
e 20 27
e 20 39
e 20 43
e 20 45
e 20 48
e 20 51
e 20 52
e 20 55
e 20 73
e 20 82
e 20 85
e 20 89
e 20 92
e 21 23
e 21 29
e 21 37
e 21 38
e 21 48
e 21 51
e 21 52
e 21 54
e 21 64
e 21 69
e 21 70
e 21 72
e 21 74
e 21 81
e 21 90
e 22 26
e 22 27
e 22 30
e 22 39
e 22 43
e 22 48
e 22 51
e 22 52
e 22 55
e 22 62
e 22 81
e 22 82
e 22 85
e 22 89
e 22 90
e 23 24
e 23 29
e 23 32
e 23 35
e 23 38
e 23 54
e 23 58
e 23 65
e 23 69
e 23 74
e 23 84
e 23 93
e 24 31
e 24 32
e 24 34
e 24 35
e 24 36
e 24 58
e 24 61
e 24 67
e 24 69
e 24 74
e 24 84
e 24 88
e 24 93
e 25 28
e 25 45
e 25 46
e 25 59
e 25 73
e 25 75
e 25 79
e 25 80
e 25 86
e 25 92
e 25 94
e 26 27
e 26 30
e 26 39
e 26 43
e 26 48
e 26 51
e 26 52
e 26 55
e 26 62
e 26 82
e 26 85
e 26 89
e 27 39
e 27 43
e 27 45
e 27 48
e 27 55
e 27 82
e 27 85
e 27 89
e 27 92
e 28 45
e 28 46
e 28 59
e 28 73
e 28 79
e 28 80
e 28 86
e 28 92
e 28 94
e 29 51
e 29 54
e 29 62
e 29 64
e 29 65
e 29 66
e 29 81
e 29 90
e 30 43
e 30 48
e 30 51
e 30 52
e 30 62
e 30 81
e 30 82
e 30 90
e 31 35
e 31 53
e 31 58
e 31 61
e 31 84
e 31 88
e 31 93
e 32 58
e 32 65
e 32 66
e 32 93
e 33 37
e 33 40
e 33 41
e 33 42
e 33 44
e 33 46
e 33 49
e 33 50
e 33 56
e 33 57
e 33 67
e 33 68
e 33 71
e 33 72
e 33 76
e 33 77
e 33 78
e 33 79
e 33 80
e 33 87
e 33 91
e 34 35
e 34 36
e 34 37
e 34 38
e 34 40
e 34 47
e 34 53
e 34 58
e 34 61
e 34 67
e 34 68
e 34 69
e 34 71
e 34 72
e 34 74
e 34 77
e 34 83
e 34 84
e 34 88
e 34 93
e 35 36
e 35 37
e 35 38
e 35 40
e 35 47
e 35 53
e 35 58
e 35 61
e 35 67
e 35 68
e 35 69
e 35 70
e 35 71
e 35 72
e 35 74
e 35 83
e 35 84
e 35 88
e 35 93
e 36 37
e 36 38
e 36 40
e 36 47
e 36 53
e 36 58
e 36 61
e 36 67
e 36 68
e 36 69
e 36 71
e 36 72
e 36 74
e 36 83
e 36 84
e 36 88
e 36 93
e 37 38
e 37 67
e 37 68
e 37 69
e 37 70
e 37 71
e 37 72
e 37 74
e 37 75
e 37 81
e 38 54
e 38 67
e 38 68
e 38 69
e 38 70
e 38 72
e 38 74
e 38 75
e 38 81
e 38 90
e 39 43
e 39 45
e 39 48
e 39 51
e 39 52
e 39 55
e 39 70
e 39 73
e 39 75
e 39 81
e 39 82
e 39 85
e 39 89
e 39 90
e 39 92
e 40 41
e 40 44
e 40 47
e 40 49
e 40 53
e 40 67
e 40 68
e 40 69
e 40 71
e 40 74
e 40 77
e 40 78
e 40 83
e 40 88
e 41 42
e 41 44
e 41 47
e 41 49
e 41 50
e 41 56
e 41 57
e 41 60
e 41 67
e 41 71
e 41 76
e 41 77
e 41 78
e 41 87
e 41 91
e 42 44
e 42 46
e 42 49
e 42 50
e 42 56
e 42 57
e 42 60
e 42 63
e 42 76
e 42 77
e 42 78
e 42 79
e 42 80
e 42 87
e 42 91
e 43 45
e 43 48
e 43 51
e 43 52
e 43 55
e 43 73
e 43 82
e 43 85
e 43 89
e 43 92
e 44 47
e 44 49
e 44 53
e 44 56
e 44 57
e 44 67
e 44 71
e 44 76
e 44 77
e 44 78
e 44 83
e 44 87
e 44 91
e 45 55
e 45 70
e 45 73
e 45 75
e 45 79
e 45 82
e 45 85
e 45 89
e 45 92
e 46 50
e 46 56
e 46 59
e 46 60
e 46 63
e 46 73
e 46 76
e 46 79
e 46 80
e 46 86
e 46 91
e 46 94
e 47 49
e 47 53
e 47 61
e 47 67
e 47 69
e 47 71
e 47 77
e 47 78
e 47 83
e 47 84
e 47 88
e 48 51
e 48 52
e 48 54
e 48 55
e 48 62
e 48 81
e 48 82
e 48 85
e 48 89
e 48 90
e 49 56
e 49 57
e 49 67
e 49 71
e 49 76
e 49 77
e 49 78
e 49 83
e 49 87
e 49 91
e 50 56
e 50 57
e 50 59
e 50 60
e 50 63
e 50 76
e 50 79
e 50 80
e 50 86
e 50 87
e 50 91
e 50 94
e 51 52
e 51 54
e 51 62
e 51 81
e 51 82
e 51 85
e 51 90
e 52 54
e 52 55
e 52 62
e 52 81
e 52 82
e 52 85
e 52 90
e 53 61
e 53 67
e 53 69
e 53 71
e 53 77
e 53 83
e 53 84
e 53 88
e 54 62
e 54 64
e 54 65
e 54 66
e 54 70
e 54 74
e 54 81
e 54 90
e 55 73
e 55 82
e 55 85
e 55 89
e 55 92
e 56 57
e 56 60
e 56 63
e 56 76
e 56 77
e 56 78
e 56 87
e 56 91
e 57 60
e 57 63
e 57 76
e 57 77
e 57 78
e 57 87
e 57 91
e 58 61
e 58 69
e 58 84
e 58 88
e 58 93
e 59 73
e 59 75
e 59 76
e 59 79
e 59 80
e 59 86
e 59 94
e 60 63
e 60 76
e 60 78
e 60 87
e 60 91
e 61 83
e 61 84
e 61 88
e 61 93
e 62 81
e 62 82
e 62 90
e 63 76
e 63 87
e 63 91
e 63 94
e 64 65
e 64 66
e 64 81
e 64 90
e 65 66
e 67 68
e 67 69
e 67 70
e 67 71
e 67 72
e 67 74
e 67 77
e 67 78
e 67 83
e 67 84
e 67 88
e 68 69
e 68 70
e 68 71
e 68 72
e 68 73
e 68 74
e 68 75
e 68 79
e 68 80
e 69 70
e 69 71
e 69 72
e 69 74
e 69 84
e 69 88
e 69 93
e 70 72
e 70 73
e 70 74
e 70 75
e 70 81
e 70 90
e 71 72
e 71 74
e 71 77
e 71 78
e 71 83
e 71 84
e 71 88
e 72 74
e 72 75
e 72 81
e 73 75
e 73 79
e 73 80
e 73 86
e 73 89
e 73 92
e 73 94
e 74 75
e 74 81
e 75 79
e 75 80
e 75 86
e 76 77
e 76 78
e 76 79
e 76 80
e 76 86
e 76 87
e 76 91
e 76 94
e 77 78
e 77 83
e 77 87
e 77 91
e 78 83
e 78 87
e 78 91
e 79 80
e 79 86
e 79 94
e 80 86
e 80 94
e 81 82
e 81 90
e 82 85
e 82 89
e 82 90
e 83 84
e 83 88
e 84 88
e 84 93
e 85 89
e 85 92
e 86 94
e 87 91
e 88 93
e 89 92
